p cnf 412 698
35 73 41 76 0
35 73 41 -76 0
6 -69 -8 77 0
6 -69 -8 -77 0
69 21 42 78 0
69 21 42 -78 0
-10 -73 -37 79 0
-10 -73 -37 -79 0
-52 21 -7 80 0
-52 21 -7 -80 0
-5 -41 -52 81 0
-5 -41 -52 -81 0
74 54 -59 82 0
74 54 -59 -82 0
67 -6 68 83 0
67 -6 68 -83 0
65 -49 -14 84 0
65 -49 -14 -84 0
73 25 7 85 0
73 25 7 -85 0
60 -14 54 86 0
60 -14 54 -86 0
26 -59 7 87 0
26 -59 7 -87 0
-55 56 -24 88 0
-55 56 -24 -88 0
63 4 37 89 0
63 4 37 -89 0
-62 28 -36 90 0
-62 28 -36 -90 0
-6 -17 -59 91 0
-6 -17 -59 -91 0
12 3 26 92 0
12 3 26 -92 0
-37 -66 71 93 0
-37 -66 71 -93 0
48 26 -14 94 0
48 26 -14 -94 0
-21 14 71 95 0
-21 14 71 -95 0
25 -12 44 96 0
25 -12 44 -96 0
51 7 23 97 0
51 7 23 -97 0
16 -61 -25 98 0
16 -61 -25 -98 0
22 19 -13 99 0
22 19 -13 -99 0
-2 49 -53 100 0
-2 49 -53 -100 0
-25 -54 -70 101 0
-25 -54 -70 -101 0
14 37 73 102 0
14 37 73 -102 0
70 -53 -8 103 0
70 -53 -8 -103 0
6 -11 72 104 0
6 -11 72 -104 0
57 -48 74 105 0
57 -48 74 -105 0
18 -69 -6 106 0
18 -69 -6 -106 0
3 1 -28 107 0
3 1 -28 -107 0
23 -31 43 108 0
23 -31 43 -108 0
9 -55 44 109 0
9 -55 44 -109 0
31 54 61 110 0
31 54 61 -110 0
-57 -31 25 111 0
-57 -31 25 -111 0
53 -46 -11 112 0
53 -46 -11 -112 0
-71 68 -3 113 0
-71 68 -3 -113 0
72 32 -40 114 0
72 32 -40 -114 0
68 8 -40 115 0
68 8 -40 -115 0
-4 51 19 116 0
-4 51 19 -116 0
-43 64 41 117 0
-43 64 41 -117 0
45 -27 -15 118 0
45 -27 -15 -118 0
-5 -7 -23 119 0
-5 -7 -23 -119 0
-23 -37 59 120 0
-23 -37 59 -120 0
-56 -62 -54 121 0
-56 -62 -54 -121 0
-29 -20 61 122 0
-29 -20 61 -122 0
7 -37 47 123 0
7 -37 47 -123 0
13 49 -28 124 0
13 49 -28 -124 0
-12 40 33 125 0
-12 40 33 -125 0
-74 7 -3 126 0
-74 7 -3 -126 0
50 35 -74 127 0
50 35 -74 -127 0
54 -36 -28 128 0
54 -36 -28 -128 0
-47 70 -46 129 0
-47 70 -46 -129 0
70 42 -28 130 0
70 42 -28 -130 0
-43 36 -59 131 0
-43 36 -59 -131 0
25 63 -24 132 0
25 63 -24 -132 0
-14 2 -13 133 0
-14 2 -13 -133 0
39 -73 64 134 0
39 -73 64 -134 0
72 66 60 135 0
72 66 60 -135 0
-2 60 -58 136 0
-2 60 -58 -136 0
-51 54 59 137 0
-51 54 59 -137 0
-52 -15 7 138 0
-52 -15 7 -138 0
-58 20 31 139 0
-58 20 31 -139 0
-64 -26 17 140 0
-64 -26 17 -140 0
-71 52 -18 141 0
-71 52 -18 -141 0
51 13 26 142 0
51 13 26 -142 0
-40 -63 41 143 0
-40 -63 41 -143 0
5 35 -41 144 0
5 35 -41 -144 0
61 -70 -20 145 0
61 -70 -20 -145 0
-37 39 45 146 0
-37 39 45 -146 0
-26 68 19 147 0
-26 68 19 -147 0
-3 67 -18 148 0
-3 67 -18 -148 0
65 42 30 149 0
65 42 30 -149 0
-24 -63 -29 150 0
-24 -63 -29 -150 0
37 26 -36 151 0
37 26 -36 -151 0
13 31 -47 152 0
13 31 -47 -152 0
62 -9 64 153 0
62 -9 64 -153 0
75 -41 -68 154 0
75 -41 -68 -154 0
64 -19 -56 155 0
64 -19 -56 -155 0
-14 23 71 156 0
-14 23 71 -156 0
-28 -42 31 157 0
-28 -42 31 -157 0
-72 -60 46 158 0
-72 -60 46 -158 0
11 65 -62 159 0
11 65 -62 -159 0
-72 7 -1 160 0
-72 7 -1 -160 0
23 37 9 161 0
23 37 9 -161 0
-19 39 4 162 0
-19 39 4 -162 0
-12 34 -61 163 0
-12 34 -61 -163 0
-3 29 -40 164 0
-3 29 -40 -164 0
-47 28 65 165 0
-47 28 65 -165 0
-33 -27 -50 166 0
-33 -27 -50 -166 0
4 64 -25 167 0
4 64 -25 -167 0
-8 49 -20 168 0
-8 49 -20 -168 0
45 33 67 169 0
45 33 67 -169 0
-67 -69 -51 170 0
-67 -69 -51 -170 0
-68 -73 -8 171 0
-68 -73 -8 -171 0
-28 -42 40 172 0
-28 -42 40 -172 0
-38 -56 51 173 0
-38 -56 51 -173 0
21 18 -39 174 0
21 18 -39 -174 0
36 -19 55 175 0
36 -19 55 -175 0
67 -17 -75 176 0
67 -17 -75 -176 0
-62 -22 16 177 0
-62 -22 16 -177 0
-1 50 -69 178 0
-1 50 -69 -178 0
4 -42 38 179 0
4 -42 38 -179 0
-51 12 2 180 0
-51 12 2 -180 0
-54 3 38 181 0
-54 3 38 -181 0
-29 -23 39 182 0
-29 -23 39 -182 0
-63 -62 9 183 0
-63 -62 9 -183 0
56 -48 -74 184 0
56 -48 -74 -184 0
-40 39 4 185 0
-40 39 4 -185 0
63 -5 -16 186 0
63 -5 -16 -186 0
43 -11 -75 187 0
43 -11 -75 -187 0
-40 43 47 188 0
-40 43 47 -188 0
6 5 -64 189 0
6 5 -64 -189 0
-71 61 -16 190 0
-71 61 -16 -190 0
12 -15 46 191 0
12 -15 46 -191 0
5 8 39 192 0
5 8 39 -192 0
66 54 61 193 0
66 54 61 -193 0
-54 32 14 194 0
-54 32 14 -194 0
19 31 -21 195 0
19 31 -21 -195 0
-1 -41 64 196 0
-1 -41 64 -196 0
-75 74 -36 197 0
-75 74 -36 -197 0
-57 69 -28 198 0
-57 69 -28 -198 0
-53 -9 -11 199 0
-53 -9 -11 -199 0
-26 69 1 200 0
-26 69 1 -200 0
20 30 -70 201 0
20 30 -70 -201 0
-37 -2 -61 202 0
-37 -2 -61 -202 0
-46 -21 58 203 0
-46 -21 58 -203 0
-52 41 -23 204 0
-52 41 -23 -204 0
32 57 67 205 0
32 57 67 -205 0
-62 -49 -50 206 0
-62 -49 -50 -206 0
44 18 52 207 0
44 18 52 -207 0
18 -61 37 208 0
18 -61 37 -208 0
14 35 66 209 0
14 35 66 -209 0
34 54 3 210 0
34 54 3 -210 0
46 -72 -5 211 0
46 -72 -5 -211 0
-71 -21 4 212 0
-71 -21 4 -212 0
64 -67 -3 213 0
64 -67 -3 -213 0
-50 -6 -21 214 0
-50 -6 -21 -214 0
-62 1 20 215 0
-62 1 20 -215 0
21 72 27 216 0
21 72 27 -216 0
10 -12 -24 217 0
10 -12 -24 -217 0
32 -47 -65 218 0
32 -47 -65 -218 0
-20 47 63 219 0
-20 47 63 -219 0
6 -73 -30 220 0
6 -73 -30 -220 0
56 7 -53 221 0
56 7 -53 -221 0
11 -42 -6 222 0
11 -42 -6 -222 0
32 -11 36 223 0
32 -11 36 -223 0
-3 64 5 224 0
-3 64 5 -224 0
-20 -35 14 225 0
-20 -35 14 -225 0
30 -40 -7 226 0
30 -40 -7 -226 0
75 58 -4 227 0
75 58 -4 -227 0
70 -49 -69 228 0
70 -49 -69 -228 0
-63 -73 -27 229 0
-63 -73 -27 -229 0
-8 -14 22 230 0
-8 -14 22 -230 0
10 38 -28 231 0
10 38 -28 -231 0
17 68 -70 232 0
17 68 -70 -232 0
-16 -58 47 233 0
-16 -58 47 -233 0
33 -51 36 234 0
33 -51 36 -234 0
-33 46 29 235 0
-33 46 29 -235 0
75 -37 -64 236 0
75 -37 -64 -236 0
19 69 -66 237 0
19 69 -66 -237 0
-67 -30 57 238 0
-67 -30 57 -238 0
48 -33 -10 239 0
48 -33 -10 -239 0
-23 -15 -18 240 0
-23 -15 -18 -240 0
-2 69 -5 241 0
-2 69 -5 -241 0
-64 -41 -51 242 0
-64 -41 -51 -242 0
53 46 20 243 0
53 46 20 -243 0
69 -57 52 244 0
69 -57 52 -244 0
-51 -13 -49 245 0
-51 -13 -49 -245 0
-38 -65 -35 246 0
-38 -65 -35 -246 0
25 44 22 247 0
25 44 22 -247 0
66 75 -46 248 0
66 75 -46 -248 0
29 28 37 249 0
29 28 37 -249 0
39 -6 38 250 0
39 -6 38 -250 0
53 36 -16 251 0
53 36 -16 -251 0
69 28 -39 252 0
69 28 -39 -252 0
-16 18 60 253 0
-16 18 60 -253 0
41 -56 47 254 0
41 -56 47 -254 0
-28 24 7 255 0
-28 24 7 -255 0
16 13 -42 256 0
16 13 -42 -256 0
-27 20 72 257 0
-27 20 72 -257 0
50 -42 -35 258 0
50 -42 -35 -258 0
3 50 25 259 0
3 50 25 -259 0
32 59 -34 260 0
32 59 -34 -260 0
-38 -31 -6 261 0
-38 -31 -6 -261 0
20 1 -46 262 0
20 1 -46 -262 0
58 -10 36 263 0
58 -10 36 -263 0
71 -48 3 264 0
71 -48 3 -264 0
47 8 -21 265 0
47 8 -21 -265 0
-44 -67 -70 266 0
-44 -67 -70 -266 0
-24 5 52 267 0
-24 5 52 -267 0
63 72 -21 268 0
63 72 -21 -268 0
-52 9 39 269 0
-52 9 39 -269 0
16 1 -23 270 0
16 1 -23 -270 0
-1 50 44 271 0
-1 50 44 -271 0
-47 -34 23 272 0
-47 -34 23 -272 0
-28 -44 -54 273 0
-28 -44 -54 -273 0
26 65 8 274 0
26 65 8 -274 0
-21 19 45 275 0
-21 19 45 -275 0
-58 74 66 276 0
-58 74 66 -276 0
-25 68 53 277 0
-25 68 53 -277 0
-6 60 -68 278 0
-6 60 -68 -278 0
28 -61 -39 279 0
28 -61 -39 -279 0
56 -11 2 280 0
56 -11 2 -280 0
47 51 -24 281 0
47 51 -24 -281 0
57 54 -37 282 0
57 54 -37 -282 0
-59 31 55 283 0
-59 31 55 -283 0
-26 -41 -75 284 0
-26 -41 -75 -284 0
-47 56 -1 285 0
-47 56 -1 -285 0
74 53 -43 286 0
74 53 -43 -286 0
66 72 -50 287 0
66 72 -50 -287 0
22 -14 -31 288 0
22 -14 -31 -288 0
15 16 10 289 0
15 16 10 -289 0
4 52 -66 290 0
4 52 -66 -290 0
-72 -24 -50 291 0
-72 -24 -50 -291 0
36 -35 61 292 0
36 -35 61 -292 0
-9 10 29 293 0
-9 10 29 -293 0
8 -26 -35 294 0
8 -26 -35 -294 0
28 -44 -17 295 0
28 -44 -17 -295 0
-15 44 65 296 0
-15 44 65 -296 0
-55 -43 -69 297 0
-55 -43 -69 -297 0
56 62 -65 298 0
56 62 -65 -298 0
-28 -34 -25 299 0
-28 -34 -25 -299 0
-27 4 33 300 0
-27 4 33 -300 0
-10 37 -49 301 0
-10 37 -49 -301 0
33 -5 24 302 0
33 -5 24 -302 0
-7 25 63 303 0
-7 25 63 -303 0
72 -62 47 304 0
72 -62 47 -304 0
-11 -1 -26 305 0
-11 -1 -26 -305 0
48 -52 9 306 0
48 -52 9 -306 0
2 8 40 307 0
2 8 40 -307 0
26 40 -33 308 0
26 40 -33 -308 0
-26 -32 53 309 0
-26 -32 53 -309 0
-20 64 -27 310 0
-20 64 -27 -310 0
17 5 47 311 0
17 5 47 -311 0
60 -27 -29 312 0
60 -27 -29 -312 0
-33 2 -27 313 0
-33 2 -27 -313 0
57 -41 -20 314 0
57 -41 -20 -314 0
61 58 62 315 0
61 58 62 -315 0
-6 -44 -23 316 0
-6 -44 -23 -316 0
74 -54 28 317 0
74 -54 28 -317 0
35 -51 41 318 0
35 -51 41 -318 0
-7 -32 -48 319 0
-7 -32 -48 -319 0
-27 53 -32 320 0
-27 53 -32 -320 0
45 -49 -72 321 0
45 -49 -72 -321 0
-20 22 43 322 0
-20 22 43 -322 0
62 59 -68 323 0
62 59 -68 -323 0
-56 16 -29 324 0
-56 16 -29 -324 0
-8 -63 30 325 0
-8 -63 30 -325 0
16 40 -1 326 0
16 40 -1 -326 0
57 -29 13 327 0
57 -29 13 -327 0
-15 -37 22 328 0
-15 -37 22 -328 0
-23 -61 21 329 0
-23 -61 21 -329 0
49 50 18 330 0
49 50 18 -330 0
8 -36 -49 331 0
8 -36 -49 -331 0
54 -9 66 332 0
54 -9 66 -332 0
-21 -22 -41 333 0
-21 -22 -41 -333 0
-10 52 65 334 0
-10 52 65 -334 0
34 68 -38 335 0
34 68 -38 -335 0
-45 -49 -20 336 0
-45 -49 -20 -336 0
31 24 -8 337 0
31 24 -8 -337 0
40 -52 15 338 0
40 -52 15 -338 0
-50 49 58 339 0
-50 49 58 -339 0
61 68 69 340 0
61 68 69 -340 0
70 -74 55 341 0
70 -74 55 -341 0
14 6 50 342 0
14 6 50 -342 0
15 -67 57 343 0
15 -67 57 -343 0
35 47 69 344 0
35 47 69 -344 0
18 72 -20 345 0
18 72 -20 -345 0
-18 14 46 346 0
-18 14 46 -346 0
-23 -41 -28 347 0
-23 -41 -28 -347 0
-3 2 -46 348 0
-3 2 -46 -348 0
-3 65 14 349 0
-3 65 14 -349 0
24 -22 43 350 0
24 -22 43 -350 0
-52 54 62 351 0
-52 54 62 -351 0
-71 46 35 352 0
-71 46 35 -352 0
-71 -34 60 353 0
-71 -34 60 -353 0
-57 -54 -41 354 0
-57 -54 -41 -354 0
-1 -8 -13 355 0
-1 -8 -13 -355 0
-59 -18 31 356 0
-59 -18 31 -356 0
52 -63 -6 357 0
52 -63 -6 -357 0
26 51 -72 358 0
26 51 -72 -358 0
-39 11 -4 359 0
-39 11 -4 -359 0
64 -31 -7 360 0
64 -31 -7 -360 0
16 -15 60 361 0
16 -15 60 -361 0
-69 56 -49 362 0
-69 56 -49 -362 0
-24 16 -10 363 0
-24 16 -10 -363 0
-64 -40 -52 364 0
-64 -40 -52 -364 0
-41 19 54 365 0
-41 19 54 -365 0
-13 31 52 366 0
-13 31 52 -366 0
34 30 7 367 0
34 30 7 -367 0
6 27 -41 368 0
6 27 -41 -368 0
-64 -68 -7 369 0
-64 -68 -7 -369 0
13 9 66 370 0
13 9 66 -370 0
19 59 5 371 0
19 59 5 -371 0
-49 -50 -38 372 0
-49 -50 -38 -372 0
62 5 -29 373 0
62 5 -29 -373 0
66 -2 -3 374 0
66 -2 -3 -374 0
43 -55 10 375 0
43 -55 10 -375 0
-62 4 -21 376 0
-62 4 -21 -376 0
-21 -69 -16 377 0
-21 -69 -16 -377 0
-46 35 74 378 0
-46 35 74 -378 0
-69 -28 -10 379 0
-69 -28 -10 -379 0
68 -27 35 380 0
68 -27 35 -380 0
-40 46 -24 381 0
-40 46 -24 -381 0
-26 -57 36 382 0
-26 -57 36 -382 0
35 11 45 383 0
35 11 45 -383 0
-40 -3 34 384 0
-40 -3 34 -384 0
-29 -67 43 385 0
-29 -67 43 -385 0
8 33 73 386 0
8 33 73 -386 0
75 43 -16 387 0
75 43 -16 -387 0
45 -43 -65 388 0
45 -43 -65 -388 0
-21 39 -2 389 0
-21 39 -2 -389 0
-71 42 -67 390 0
-71 42 -67 -390 0
-65 -38 17 391 0
-65 -38 17 -391 0
21 69 75 392 0
21 69 75 -392 0
16 74 -50 393 0
16 74 -50 -393 0
4 33 14 394 0
4 33 14 -394 0
-5 -7 68 395 0
-5 -7 68 -395 0
-55 34 -60 396 0
-55 34 -60 -396 0
29 41 48 397 0
29 41 48 -397 0
37 16 75 398 0
37 16 75 -398 0
-61 25 -45 399 0
-61 25 -45 -399 0
25 35 62 400 0
25 35 62 -400 0
401 402 403 404 0
401 402 403 -404 0
401 402 -403 404 0
401 402 -403 -404 0
401 -402 403 404 0
401 -402 403 -404 0
401 -402 -403 404 0
401 -402 -403 -404 0
-401 402 403 404 0
-401 402 403 -404 0
-401 402 -403 404 0
-401 402 -403 -404 0
-401 -402 403 404 0
-401 -402 403 -404 0
-401 -402 -403 404 0
-401 -402 -403 -404 0
405 406 407 408 0
405 406 407 -408 0
405 406 -407 408 0
405 406 -407 -408 0
405 -406 407 408 0
405 -406 407 -408 0
405 -406 -407 408 0
405 -406 -407 -408 0
-405 406 407 408 0
-405 406 407 -408 0
-405 406 -407 408 0
-405 406 -407 -408 0
-405 -406 407 408 0
-405 -406 407 -408 0
-405 -406 -407 408 0
-405 -406 -407 -408 0
409 410 411 412 0
409 410 411 -412 0
409 410 -411 412 0
409 410 -411 -412 0
409 -410 411 412 0
409 -410 411 -412 0
409 -410 -411 412 0
409 -410 -411 -412 0
-409 410 411 412 0
-409 410 411 -412 0
-409 410 -411 412 0
-409 410 -411 -412 0
-409 -410 411 412 0
-409 -410 411 -412 0
-409 -410 -411 412 0
-409 -410 -411 -412 0
